c *********************************
c * Circuit generated by BenCGen
c *
c * CarrySkipAdder_112_112_112_InOut_G4T
c *
c * Ports with 1 gate(s): 30
c * Ports with 2 gate(s): 617
c * Ports with 4 gate(s): 28
c * Total gates: 675
c *********************************
p cnf 899 2275
1 339 0
-1 -339 0
1 -338 0
339 -338 0
-1 -339 338 0
1 113 -342 0
-1 113 342 0
1 -113 342 0
-1 -113 -342 0
342 338 -225 0
-342 338 225 0
342 -338 225 0
-342 -338 -225 0
338 -343 0
342 -343 0
-338 -342 343 0
113 -344 0
1 -344 0
-113 -1 344 0
-343 341 0
-344 341 0
343 344 -341 0
2 114 -346 0
-2 114 346 0
2 -114 346 0
-2 -114 -346 0
346 341 -226 0
-346 341 226 0
346 -341 226 0
-346 -341 -226 0
341 -347 0
346 -347 0
-341 -346 347 0
114 -348 0
2 -348 0
-114 -2 348 0
-347 345 0
-348 345 0
347 348 -345 0
3 115 -350 0
-3 115 350 0
3 -115 350 0
-3 -115 -350 0
350 345 -227 0
-350 345 227 0
350 -345 227 0
-350 -345 -227 0
345 -351 0
350 -351 0
-345 -350 351 0
115 -352 0
3 -352 0
-115 -3 352 0
-351 349 0
-352 349 0
351 352 -349 0
4 116 -353 0
-4 116 353 0
4 -116 353 0
-4 -116 -353 0
353 349 -228 0
-353 349 228 0
353 -349 228 0
-353 -349 -228 0
349 -354 0
353 -354 0
-349 -353 354 0
116 -355 0
4 -355 0
-116 -4 355 0
-354 340 0
-355 340 0
354 355 -340 0
342 -356 0
346 -356 0
350 -356 0
353 -356 0
-342 -346 -350 -353 356 0
355 -357 0
-355 357 0
338 -358 0
356 -358 0
-338 -356 358 0
-358 359 0
-340 359 0
358 340 -359 0
5 117 -362 0
-5 117 362 0
5 -117 362 0
-5 -117 -362 0
362 359 -229 0
-362 359 229 0
362 -359 229 0
-362 -359 -229 0
359 -363 0
362 -363 0
-359 -362 363 0
117 -364 0
5 -364 0
-117 -5 364 0
-363 361 0
-364 361 0
363 364 -361 0
6 118 -366 0
-6 118 366 0
6 -118 366 0
-6 -118 -366 0
366 361 -230 0
-366 361 230 0
366 -361 230 0
-366 -361 -230 0
361 -367 0
366 -367 0
-361 -366 367 0
118 -368 0
6 -368 0
-118 -6 368 0
-367 365 0
-368 365 0
367 368 -365 0
7 119 -370 0
-7 119 370 0
7 -119 370 0
-7 -119 -370 0
370 365 -231 0
-370 365 231 0
370 -365 231 0
-370 -365 -231 0
365 -371 0
370 -371 0
-365 -370 371 0
119 -372 0
7 -372 0
-119 -7 372 0
-371 369 0
-372 369 0
371 372 -369 0
8 120 -373 0
-8 120 373 0
8 -120 373 0
-8 -120 -373 0
373 369 -232 0
-373 369 232 0
373 -369 232 0
-373 -369 -232 0
369 -374 0
373 -374 0
-369 -373 374 0
120 -375 0
8 -375 0
-120 -8 375 0
-374 360 0
-375 360 0
374 375 -360 0
362 -376 0
366 -376 0
370 -376 0
373 -376 0
-362 -366 -370 -373 376 0
375 -377 0
-375 377 0
359 -378 0
376 -378 0
-359 -376 378 0
-378 379 0
-360 379 0
378 360 -379 0
9 121 -382 0
-9 121 382 0
9 -121 382 0
-9 -121 -382 0
382 379 -233 0
-382 379 233 0
382 -379 233 0
-382 -379 -233 0
379 -383 0
382 -383 0
-379 -382 383 0
121 -384 0
9 -384 0
-121 -9 384 0
-383 381 0
-384 381 0
383 384 -381 0
10 122 -386 0
-10 122 386 0
10 -122 386 0
-10 -122 -386 0
386 381 -234 0
-386 381 234 0
386 -381 234 0
-386 -381 -234 0
381 -387 0
386 -387 0
-381 -386 387 0
122 -388 0
10 -388 0
-122 -10 388 0
-387 385 0
-388 385 0
387 388 -385 0
11 123 -390 0
-11 123 390 0
11 -123 390 0
-11 -123 -390 0
390 385 -235 0
-390 385 235 0
390 -385 235 0
-390 -385 -235 0
385 -391 0
390 -391 0
-385 -390 391 0
123 -392 0
11 -392 0
-123 -11 392 0
-391 389 0
-392 389 0
391 392 -389 0
12 124 -393 0
-12 124 393 0
12 -124 393 0
-12 -124 -393 0
393 389 -236 0
-393 389 236 0
393 -389 236 0
-393 -389 -236 0
389 -394 0
393 -394 0
-389 -393 394 0
124 -395 0
12 -395 0
-124 -12 395 0
-394 380 0
-395 380 0
394 395 -380 0
382 -396 0
386 -396 0
390 -396 0
393 -396 0
-382 -386 -390 -393 396 0
395 -397 0
-395 397 0
379 -398 0
396 -398 0
-379 -396 398 0
-398 399 0
-380 399 0
398 380 -399 0
13 125 -402 0
-13 125 402 0
13 -125 402 0
-13 -125 -402 0
402 399 -237 0
-402 399 237 0
402 -399 237 0
-402 -399 -237 0
399 -403 0
402 -403 0
-399 -402 403 0
125 -404 0
13 -404 0
-125 -13 404 0
-403 401 0
-404 401 0
403 404 -401 0
14 126 -406 0
-14 126 406 0
14 -126 406 0
-14 -126 -406 0
406 401 -238 0
-406 401 238 0
406 -401 238 0
-406 -401 -238 0
401 -407 0
406 -407 0
-401 -406 407 0
126 -408 0
14 -408 0
-126 -14 408 0
-407 405 0
-408 405 0
407 408 -405 0
15 127 -410 0
-15 127 410 0
15 -127 410 0
-15 -127 -410 0
410 405 -239 0
-410 405 239 0
410 -405 239 0
-410 -405 -239 0
405 -411 0
410 -411 0
-405 -410 411 0
127 -412 0
15 -412 0
-127 -15 412 0
-411 409 0
-412 409 0
411 412 -409 0
16 128 -413 0
-16 128 413 0
16 -128 413 0
-16 -128 -413 0
413 409 -240 0
-413 409 240 0
413 -409 240 0
-413 -409 -240 0
409 -414 0
413 -414 0
-409 -413 414 0
128 -415 0
16 -415 0
-128 -16 415 0
-414 400 0
-415 400 0
414 415 -400 0
402 -416 0
406 -416 0
410 -416 0
413 -416 0
-402 -406 -410 -413 416 0
415 -417 0
-415 417 0
399 -418 0
416 -418 0
-399 -416 418 0
-418 419 0
-400 419 0
418 400 -419 0
17 129 -422 0
-17 129 422 0
17 -129 422 0
-17 -129 -422 0
422 419 -241 0
-422 419 241 0
422 -419 241 0
-422 -419 -241 0
419 -423 0
422 -423 0
-419 -422 423 0
129 -424 0
17 -424 0
-129 -17 424 0
-423 421 0
-424 421 0
423 424 -421 0
18 130 -426 0
-18 130 426 0
18 -130 426 0
-18 -130 -426 0
426 421 -242 0
-426 421 242 0
426 -421 242 0
-426 -421 -242 0
421 -427 0
426 -427 0
-421 -426 427 0
130 -428 0
18 -428 0
-130 -18 428 0
-427 425 0
-428 425 0
427 428 -425 0
19 131 -430 0
-19 131 430 0
19 -131 430 0
-19 -131 -430 0
430 425 -243 0
-430 425 243 0
430 -425 243 0
-430 -425 -243 0
425 -431 0
430 -431 0
-425 -430 431 0
131 -432 0
19 -432 0
-131 -19 432 0
-431 429 0
-432 429 0
431 432 -429 0
20 132 -433 0
-20 132 433 0
20 -132 433 0
-20 -132 -433 0
433 429 -244 0
-433 429 244 0
433 -429 244 0
-433 -429 -244 0
429 -434 0
433 -434 0
-429 -433 434 0
132 -435 0
20 -435 0
-132 -20 435 0
-434 420 0
-435 420 0
434 435 -420 0
422 -436 0
426 -436 0
430 -436 0
433 -436 0
-422 -426 -430 -433 436 0
435 -437 0
-435 437 0
419 -438 0
436 -438 0
-419 -436 438 0
-438 439 0
-420 439 0
438 420 -439 0
21 133 -442 0
-21 133 442 0
21 -133 442 0
-21 -133 -442 0
442 439 -245 0
-442 439 245 0
442 -439 245 0
-442 -439 -245 0
439 -443 0
442 -443 0
-439 -442 443 0
133 -444 0
21 -444 0
-133 -21 444 0
-443 441 0
-444 441 0
443 444 -441 0
22 134 -446 0
-22 134 446 0
22 -134 446 0
-22 -134 -446 0
446 441 -246 0
-446 441 246 0
446 -441 246 0
-446 -441 -246 0
441 -447 0
446 -447 0
-441 -446 447 0
134 -448 0
22 -448 0
-134 -22 448 0
-447 445 0
-448 445 0
447 448 -445 0
23 135 -450 0
-23 135 450 0
23 -135 450 0
-23 -135 -450 0
450 445 -247 0
-450 445 247 0
450 -445 247 0
-450 -445 -247 0
445 -451 0
450 -451 0
-445 -450 451 0
135 -452 0
23 -452 0
-135 -23 452 0
-451 449 0
-452 449 0
451 452 -449 0
24 136 -453 0
-24 136 453 0
24 -136 453 0
-24 -136 -453 0
453 449 -248 0
-453 449 248 0
453 -449 248 0
-453 -449 -248 0
449 -454 0
453 -454 0
-449 -453 454 0
136 -455 0
24 -455 0
-136 -24 455 0
-454 440 0
-455 440 0
454 455 -440 0
442 -456 0
446 -456 0
450 -456 0
453 -456 0
-442 -446 -450 -453 456 0
455 -457 0
-455 457 0
439 -458 0
456 -458 0
-439 -456 458 0
-458 459 0
-440 459 0
458 440 -459 0
25 137 -462 0
-25 137 462 0
25 -137 462 0
-25 -137 -462 0
462 459 -249 0
-462 459 249 0
462 -459 249 0
-462 -459 -249 0
459 -463 0
462 -463 0
-459 -462 463 0
137 -464 0
25 -464 0
-137 -25 464 0
-463 461 0
-464 461 0
463 464 -461 0
26 138 -466 0
-26 138 466 0
26 -138 466 0
-26 -138 -466 0
466 461 -250 0
-466 461 250 0
466 -461 250 0
-466 -461 -250 0
461 -467 0
466 -467 0
-461 -466 467 0
138 -468 0
26 -468 0
-138 -26 468 0
-467 465 0
-468 465 0
467 468 -465 0
27 139 -470 0
-27 139 470 0
27 -139 470 0
-27 -139 -470 0
470 465 -251 0
-470 465 251 0
470 -465 251 0
-470 -465 -251 0
465 -471 0
470 -471 0
-465 -470 471 0
139 -472 0
27 -472 0
-139 -27 472 0
-471 469 0
-472 469 0
471 472 -469 0
28 140 -473 0
-28 140 473 0
28 -140 473 0
-28 -140 -473 0
473 469 -252 0
-473 469 252 0
473 -469 252 0
-473 -469 -252 0
469 -474 0
473 -474 0
-469 -473 474 0
140 -475 0
28 -475 0
-140 -28 475 0
-474 460 0
-475 460 0
474 475 -460 0
462 -476 0
466 -476 0
470 -476 0
473 -476 0
-462 -466 -470 -473 476 0
475 -477 0
-475 477 0
459 -478 0
476 -478 0
-459 -476 478 0
-478 479 0
-460 479 0
478 460 -479 0
29 141 -482 0
-29 141 482 0
29 -141 482 0
-29 -141 -482 0
482 479 -253 0
-482 479 253 0
482 -479 253 0
-482 -479 -253 0
479 -483 0
482 -483 0
-479 -482 483 0
141 -484 0
29 -484 0
-141 -29 484 0
-483 481 0
-484 481 0
483 484 -481 0
30 142 -486 0
-30 142 486 0
30 -142 486 0
-30 -142 -486 0
486 481 -254 0
-486 481 254 0
486 -481 254 0
-486 -481 -254 0
481 -487 0
486 -487 0
-481 -486 487 0
142 -488 0
30 -488 0
-142 -30 488 0
-487 485 0
-488 485 0
487 488 -485 0
31 143 -490 0
-31 143 490 0
31 -143 490 0
-31 -143 -490 0
490 485 -255 0
-490 485 255 0
490 -485 255 0
-490 -485 -255 0
485 -491 0
490 -491 0
-485 -490 491 0
143 -492 0
31 -492 0
-143 -31 492 0
-491 489 0
-492 489 0
491 492 -489 0
32 144 -493 0
-32 144 493 0
32 -144 493 0
-32 -144 -493 0
493 489 -256 0
-493 489 256 0
493 -489 256 0
-493 -489 -256 0
489 -494 0
493 -494 0
-489 -493 494 0
144 -495 0
32 -495 0
-144 -32 495 0
-494 480 0
-495 480 0
494 495 -480 0
482 -496 0
486 -496 0
490 -496 0
493 -496 0
-482 -486 -490 -493 496 0
495 -497 0
-495 497 0
479 -498 0
496 -498 0
-479 -496 498 0
-498 499 0
-480 499 0
498 480 -499 0
33 145 -502 0
-33 145 502 0
33 -145 502 0
-33 -145 -502 0
502 499 -257 0
-502 499 257 0
502 -499 257 0
-502 -499 -257 0
499 -503 0
502 -503 0
-499 -502 503 0
145 -504 0
33 -504 0
-145 -33 504 0
-503 501 0
-504 501 0
503 504 -501 0
34 146 -506 0
-34 146 506 0
34 -146 506 0
-34 -146 -506 0
506 501 -258 0
-506 501 258 0
506 -501 258 0
-506 -501 -258 0
501 -507 0
506 -507 0
-501 -506 507 0
146 -508 0
34 -508 0
-146 -34 508 0
-507 505 0
-508 505 0
507 508 -505 0
35 147 -510 0
-35 147 510 0
35 -147 510 0
-35 -147 -510 0
510 505 -259 0
-510 505 259 0
510 -505 259 0
-510 -505 -259 0
505 -511 0
510 -511 0
-505 -510 511 0
147 -512 0
35 -512 0
-147 -35 512 0
-511 509 0
-512 509 0
511 512 -509 0
36 148 -513 0
-36 148 513 0
36 -148 513 0
-36 -148 -513 0
513 509 -260 0
-513 509 260 0
513 -509 260 0
-513 -509 -260 0
509 -514 0
513 -514 0
-509 -513 514 0
148 -515 0
36 -515 0
-148 -36 515 0
-514 500 0
-515 500 0
514 515 -500 0
502 -516 0
506 -516 0
510 -516 0
513 -516 0
-502 -506 -510 -513 516 0
515 -517 0
-515 517 0
499 -518 0
516 -518 0
-499 -516 518 0
-518 519 0
-500 519 0
518 500 -519 0
37 149 -522 0
-37 149 522 0
37 -149 522 0
-37 -149 -522 0
522 519 -261 0
-522 519 261 0
522 -519 261 0
-522 -519 -261 0
519 -523 0
522 -523 0
-519 -522 523 0
149 -524 0
37 -524 0
-149 -37 524 0
-523 521 0
-524 521 0
523 524 -521 0
38 150 -526 0
-38 150 526 0
38 -150 526 0
-38 -150 -526 0
526 521 -262 0
-526 521 262 0
526 -521 262 0
-526 -521 -262 0
521 -527 0
526 -527 0
-521 -526 527 0
150 -528 0
38 -528 0
-150 -38 528 0
-527 525 0
-528 525 0
527 528 -525 0
39 151 -530 0
-39 151 530 0
39 -151 530 0
-39 -151 -530 0
530 525 -263 0
-530 525 263 0
530 -525 263 0
-530 -525 -263 0
525 -531 0
530 -531 0
-525 -530 531 0
151 -532 0
39 -532 0
-151 -39 532 0
-531 529 0
-532 529 0
531 532 -529 0
40 152 -533 0
-40 152 533 0
40 -152 533 0
-40 -152 -533 0
533 529 -264 0
-533 529 264 0
533 -529 264 0
-533 -529 -264 0
529 -534 0
533 -534 0
-529 -533 534 0
152 -535 0
40 -535 0
-152 -40 535 0
-534 520 0
-535 520 0
534 535 -520 0
522 -536 0
526 -536 0
530 -536 0
533 -536 0
-522 -526 -530 -533 536 0
535 -537 0
-535 537 0
519 -538 0
536 -538 0
-519 -536 538 0
-538 539 0
-520 539 0
538 520 -539 0
41 153 -542 0
-41 153 542 0
41 -153 542 0
-41 -153 -542 0
542 539 -265 0
-542 539 265 0
542 -539 265 0
-542 -539 -265 0
539 -543 0
542 -543 0
-539 -542 543 0
153 -544 0
41 -544 0
-153 -41 544 0
-543 541 0
-544 541 0
543 544 -541 0
42 154 -546 0
-42 154 546 0
42 -154 546 0
-42 -154 -546 0
546 541 -266 0
-546 541 266 0
546 -541 266 0
-546 -541 -266 0
541 -547 0
546 -547 0
-541 -546 547 0
154 -548 0
42 -548 0
-154 -42 548 0
-547 545 0
-548 545 0
547 548 -545 0
43 155 -550 0
-43 155 550 0
43 -155 550 0
-43 -155 -550 0
550 545 -267 0
-550 545 267 0
550 -545 267 0
-550 -545 -267 0
545 -551 0
550 -551 0
-545 -550 551 0
155 -552 0
43 -552 0
-155 -43 552 0
-551 549 0
-552 549 0
551 552 -549 0
44 156 -553 0
-44 156 553 0
44 -156 553 0
-44 -156 -553 0
553 549 -268 0
-553 549 268 0
553 -549 268 0
-553 -549 -268 0
549 -554 0
553 -554 0
-549 -553 554 0
156 -555 0
44 -555 0
-156 -44 555 0
-554 540 0
-555 540 0
554 555 -540 0
542 -556 0
546 -556 0
550 -556 0
553 -556 0
-542 -546 -550 -553 556 0
555 -557 0
-555 557 0
539 -558 0
556 -558 0
-539 -556 558 0
-558 559 0
-540 559 0
558 540 -559 0
45 157 -562 0
-45 157 562 0
45 -157 562 0
-45 -157 -562 0
562 559 -269 0
-562 559 269 0
562 -559 269 0
-562 -559 -269 0
559 -563 0
562 -563 0
-559 -562 563 0
157 -564 0
45 -564 0
-157 -45 564 0
-563 561 0
-564 561 0
563 564 -561 0
46 158 -566 0
-46 158 566 0
46 -158 566 0
-46 -158 -566 0
566 561 -270 0
-566 561 270 0
566 -561 270 0
-566 -561 -270 0
561 -567 0
566 -567 0
-561 -566 567 0
158 -568 0
46 -568 0
-158 -46 568 0
-567 565 0
-568 565 0
567 568 -565 0
47 159 -570 0
-47 159 570 0
47 -159 570 0
-47 -159 -570 0
570 565 -271 0
-570 565 271 0
570 -565 271 0
-570 -565 -271 0
565 -571 0
570 -571 0
-565 -570 571 0
159 -572 0
47 -572 0
-159 -47 572 0
-571 569 0
-572 569 0
571 572 -569 0
48 160 -573 0
-48 160 573 0
48 -160 573 0
-48 -160 -573 0
573 569 -272 0
-573 569 272 0
573 -569 272 0
-573 -569 -272 0
569 -574 0
573 -574 0
-569 -573 574 0
160 -575 0
48 -575 0
-160 -48 575 0
-574 560 0
-575 560 0
574 575 -560 0
562 -576 0
566 -576 0
570 -576 0
573 -576 0
-562 -566 -570 -573 576 0
575 -577 0
-575 577 0
559 -578 0
576 -578 0
-559 -576 578 0
-578 579 0
-560 579 0
578 560 -579 0
49 161 -582 0
-49 161 582 0
49 -161 582 0
-49 -161 -582 0
582 579 -273 0
-582 579 273 0
582 -579 273 0
-582 -579 -273 0
579 -583 0
582 -583 0
-579 -582 583 0
161 -584 0
49 -584 0
-161 -49 584 0
-583 581 0
-584 581 0
583 584 -581 0
50 162 -586 0
-50 162 586 0
50 -162 586 0
-50 -162 -586 0
586 581 -274 0
-586 581 274 0
586 -581 274 0
-586 -581 -274 0
581 -587 0
586 -587 0
-581 -586 587 0
162 -588 0
50 -588 0
-162 -50 588 0
-587 585 0
-588 585 0
587 588 -585 0
51 163 -590 0
-51 163 590 0
51 -163 590 0
-51 -163 -590 0
590 585 -275 0
-590 585 275 0
590 -585 275 0
-590 -585 -275 0
585 -591 0
590 -591 0
-585 -590 591 0
163 -592 0
51 -592 0
-163 -51 592 0
-591 589 0
-592 589 0
591 592 -589 0
52 164 -593 0
-52 164 593 0
52 -164 593 0
-52 -164 -593 0
593 589 -276 0
-593 589 276 0
593 -589 276 0
-593 -589 -276 0
589 -594 0
593 -594 0
-589 -593 594 0
164 -595 0
52 -595 0
-164 -52 595 0
-594 580 0
-595 580 0
594 595 -580 0
582 -596 0
586 -596 0
590 -596 0
593 -596 0
-582 -586 -590 -593 596 0
595 -597 0
-595 597 0
579 -598 0
596 -598 0
-579 -596 598 0
-598 599 0
-580 599 0
598 580 -599 0
53 165 -602 0
-53 165 602 0
53 -165 602 0
-53 -165 -602 0
602 599 -277 0
-602 599 277 0
602 -599 277 0
-602 -599 -277 0
599 -603 0
602 -603 0
-599 -602 603 0
165 -604 0
53 -604 0
-165 -53 604 0
-603 601 0
-604 601 0
603 604 -601 0
54 166 -606 0
-54 166 606 0
54 -166 606 0
-54 -166 -606 0
606 601 -278 0
-606 601 278 0
606 -601 278 0
-606 -601 -278 0
601 -607 0
606 -607 0
-601 -606 607 0
166 -608 0
54 -608 0
-166 -54 608 0
-607 605 0
-608 605 0
607 608 -605 0
55 167 -610 0
-55 167 610 0
55 -167 610 0
-55 -167 -610 0
610 605 -279 0
-610 605 279 0
610 -605 279 0
-610 -605 -279 0
605 -611 0
610 -611 0
-605 -610 611 0
167 -612 0
55 -612 0
-167 -55 612 0
-611 609 0
-612 609 0
611 612 -609 0
56 168 -613 0
-56 168 613 0
56 -168 613 0
-56 -168 -613 0
613 609 -280 0
-613 609 280 0
613 -609 280 0
-613 -609 -280 0
609 -614 0
613 -614 0
-609 -613 614 0
168 -615 0
56 -615 0
-168 -56 615 0
-614 600 0
-615 600 0
614 615 -600 0
602 -616 0
606 -616 0
610 -616 0
613 -616 0
-602 -606 -610 -613 616 0
615 -617 0
-615 617 0
599 -618 0
616 -618 0
-599 -616 618 0
-618 619 0
-600 619 0
618 600 -619 0
57 169 -622 0
-57 169 622 0
57 -169 622 0
-57 -169 -622 0
622 619 -281 0
-622 619 281 0
622 -619 281 0
-622 -619 -281 0
619 -623 0
622 -623 0
-619 -622 623 0
169 -624 0
57 -624 0
-169 -57 624 0
-623 621 0
-624 621 0
623 624 -621 0
58 170 -626 0
-58 170 626 0
58 -170 626 0
-58 -170 -626 0
626 621 -282 0
-626 621 282 0
626 -621 282 0
-626 -621 -282 0
621 -627 0
626 -627 0
-621 -626 627 0
170 -628 0
58 -628 0
-170 -58 628 0
-627 625 0
-628 625 0
627 628 -625 0
59 171 -630 0
-59 171 630 0
59 -171 630 0
-59 -171 -630 0
630 625 -283 0
-630 625 283 0
630 -625 283 0
-630 -625 -283 0
625 -631 0
630 -631 0
-625 -630 631 0
171 -632 0
59 -632 0
-171 -59 632 0
-631 629 0
-632 629 0
631 632 -629 0
60 172 -633 0
-60 172 633 0
60 -172 633 0
-60 -172 -633 0
633 629 -284 0
-633 629 284 0
633 -629 284 0
-633 -629 -284 0
629 -634 0
633 -634 0
-629 -633 634 0
172 -635 0
60 -635 0
-172 -60 635 0
-634 620 0
-635 620 0
634 635 -620 0
622 -636 0
626 -636 0
630 -636 0
633 -636 0
-622 -626 -630 -633 636 0
635 -637 0
-635 637 0
619 -638 0
636 -638 0
-619 -636 638 0
-638 639 0
-620 639 0
638 620 -639 0
61 173 -642 0
-61 173 642 0
61 -173 642 0
-61 -173 -642 0
642 639 -285 0
-642 639 285 0
642 -639 285 0
-642 -639 -285 0
639 -643 0
642 -643 0
-639 -642 643 0
173 -644 0
61 -644 0
-173 -61 644 0
-643 641 0
-644 641 0
643 644 -641 0
62 174 -646 0
-62 174 646 0
62 -174 646 0
-62 -174 -646 0
646 641 -286 0
-646 641 286 0
646 -641 286 0
-646 -641 -286 0
641 -647 0
646 -647 0
-641 -646 647 0
174 -648 0
62 -648 0
-174 -62 648 0
-647 645 0
-648 645 0
647 648 -645 0
63 175 -650 0
-63 175 650 0
63 -175 650 0
-63 -175 -650 0
650 645 -287 0
-650 645 287 0
650 -645 287 0
-650 -645 -287 0
645 -651 0
650 -651 0
-645 -650 651 0
175 -652 0
63 -652 0
-175 -63 652 0
-651 649 0
-652 649 0
651 652 -649 0
64 176 -653 0
-64 176 653 0
64 -176 653 0
-64 -176 -653 0
653 649 -288 0
-653 649 288 0
653 -649 288 0
-653 -649 -288 0
649 -654 0
653 -654 0
-649 -653 654 0
176 -655 0
64 -655 0
-176 -64 655 0
-654 640 0
-655 640 0
654 655 -640 0
642 -656 0
646 -656 0
650 -656 0
653 -656 0
-642 -646 -650 -653 656 0
655 -657 0
-655 657 0
639 -658 0
656 -658 0
-639 -656 658 0
-658 659 0
-640 659 0
658 640 -659 0
65 177 -662 0
-65 177 662 0
65 -177 662 0
-65 -177 -662 0
662 659 -289 0
-662 659 289 0
662 -659 289 0
-662 -659 -289 0
659 -663 0
662 -663 0
-659 -662 663 0
177 -664 0
65 -664 0
-177 -65 664 0
-663 661 0
-664 661 0
663 664 -661 0
66 178 -666 0
-66 178 666 0
66 -178 666 0
-66 -178 -666 0
666 661 -290 0
-666 661 290 0
666 -661 290 0
-666 -661 -290 0
661 -667 0
666 -667 0
-661 -666 667 0
178 -668 0
66 -668 0
-178 -66 668 0
-667 665 0
-668 665 0
667 668 -665 0
67 179 -670 0
-67 179 670 0
67 -179 670 0
-67 -179 -670 0
670 665 -291 0
-670 665 291 0
670 -665 291 0
-670 -665 -291 0
665 -671 0
670 -671 0
-665 -670 671 0
179 -672 0
67 -672 0
-179 -67 672 0
-671 669 0
-672 669 0
671 672 -669 0
68 180 -673 0
-68 180 673 0
68 -180 673 0
-68 -180 -673 0
673 669 -292 0
-673 669 292 0
673 -669 292 0
-673 -669 -292 0
669 -674 0
673 -674 0
-669 -673 674 0
180 -675 0
68 -675 0
-180 -68 675 0
-674 660 0
-675 660 0
674 675 -660 0
662 -676 0
666 -676 0
670 -676 0
673 -676 0
-662 -666 -670 -673 676 0
675 -677 0
-675 677 0
659 -678 0
676 -678 0
-659 -676 678 0
-678 679 0
-660 679 0
678 660 -679 0
69 181 -682 0
-69 181 682 0
69 -181 682 0
-69 -181 -682 0
682 679 -293 0
-682 679 293 0
682 -679 293 0
-682 -679 -293 0
679 -683 0
682 -683 0
-679 -682 683 0
181 -684 0
69 -684 0
-181 -69 684 0
-683 681 0
-684 681 0
683 684 -681 0
70 182 -686 0
-70 182 686 0
70 -182 686 0
-70 -182 -686 0
686 681 -294 0
-686 681 294 0
686 -681 294 0
-686 -681 -294 0
681 -687 0
686 -687 0
-681 -686 687 0
182 -688 0
70 -688 0
-182 -70 688 0
-687 685 0
-688 685 0
687 688 -685 0
71 183 -690 0
-71 183 690 0
71 -183 690 0
-71 -183 -690 0
690 685 -295 0
-690 685 295 0
690 -685 295 0
-690 -685 -295 0
685 -691 0
690 -691 0
-685 -690 691 0
183 -692 0
71 -692 0
-183 -71 692 0
-691 689 0
-692 689 0
691 692 -689 0
72 184 -693 0
-72 184 693 0
72 -184 693 0
-72 -184 -693 0
693 689 -296 0
-693 689 296 0
693 -689 296 0
-693 -689 -296 0
689 -694 0
693 -694 0
-689 -693 694 0
184 -695 0
72 -695 0
-184 -72 695 0
-694 680 0
-695 680 0
694 695 -680 0
682 -696 0
686 -696 0
690 -696 0
693 -696 0
-682 -686 -690 -693 696 0
695 -697 0
-695 697 0
679 -698 0
696 -698 0
-679 -696 698 0
-698 699 0
-680 699 0
698 680 -699 0
73 185 -702 0
-73 185 702 0
73 -185 702 0
-73 -185 -702 0
702 699 -297 0
-702 699 297 0
702 -699 297 0
-702 -699 -297 0
699 -703 0
702 -703 0
-699 -702 703 0
185 -704 0
73 -704 0
-185 -73 704 0
-703 701 0
-704 701 0
703 704 -701 0
74 186 -706 0
-74 186 706 0
74 -186 706 0
-74 -186 -706 0
706 701 -298 0
-706 701 298 0
706 -701 298 0
-706 -701 -298 0
701 -707 0
706 -707 0
-701 -706 707 0
186 -708 0
74 -708 0
-186 -74 708 0
-707 705 0
-708 705 0
707 708 -705 0
75 187 -710 0
-75 187 710 0
75 -187 710 0
-75 -187 -710 0
710 705 -299 0
-710 705 299 0
710 -705 299 0
-710 -705 -299 0
705 -711 0
710 -711 0
-705 -710 711 0
187 -712 0
75 -712 0
-187 -75 712 0
-711 709 0
-712 709 0
711 712 -709 0
76 188 -713 0
-76 188 713 0
76 -188 713 0
-76 -188 -713 0
713 709 -300 0
-713 709 300 0
713 -709 300 0
-713 -709 -300 0
709 -714 0
713 -714 0
-709 -713 714 0
188 -715 0
76 -715 0
-188 -76 715 0
-714 700 0
-715 700 0
714 715 -700 0
702 -716 0
706 -716 0
710 -716 0
713 -716 0
-702 -706 -710 -713 716 0
715 -717 0
-715 717 0
699 -718 0
716 -718 0
-699 -716 718 0
-718 719 0
-700 719 0
718 700 -719 0
77 189 -722 0
-77 189 722 0
77 -189 722 0
-77 -189 -722 0
722 719 -301 0
-722 719 301 0
722 -719 301 0
-722 -719 -301 0
719 -723 0
722 -723 0
-719 -722 723 0
189 -724 0
77 -724 0
-189 -77 724 0
-723 721 0
-724 721 0
723 724 -721 0
78 190 -726 0
-78 190 726 0
78 -190 726 0
-78 -190 -726 0
726 721 -302 0
-726 721 302 0
726 -721 302 0
-726 -721 -302 0
721 -727 0
726 -727 0
-721 -726 727 0
190 -728 0
78 -728 0
-190 -78 728 0
-727 725 0
-728 725 0
727 728 -725 0
79 191 -730 0
-79 191 730 0
79 -191 730 0
-79 -191 -730 0
730 725 -303 0
-730 725 303 0
730 -725 303 0
-730 -725 -303 0
725 -731 0
730 -731 0
-725 -730 731 0
191 -732 0
79 -732 0
-191 -79 732 0
-731 729 0
-732 729 0
731 732 -729 0
80 192 -733 0
-80 192 733 0
80 -192 733 0
-80 -192 -733 0
733 729 -304 0
-733 729 304 0
733 -729 304 0
-733 -729 -304 0
729 -734 0
733 -734 0
-729 -733 734 0
192 -735 0
80 -735 0
-192 -80 735 0
-734 720 0
-735 720 0
734 735 -720 0
722 -736 0
726 -736 0
730 -736 0
733 -736 0
-722 -726 -730 -733 736 0
735 -737 0
-735 737 0
719 -738 0
736 -738 0
-719 -736 738 0
-738 739 0
-720 739 0
738 720 -739 0
81 193 -742 0
-81 193 742 0
81 -193 742 0
-81 -193 -742 0
742 739 -305 0
-742 739 305 0
742 -739 305 0
-742 -739 -305 0
739 -743 0
742 -743 0
-739 -742 743 0
193 -744 0
81 -744 0
-193 -81 744 0
-743 741 0
-744 741 0
743 744 -741 0
82 194 -746 0
-82 194 746 0
82 -194 746 0
-82 -194 -746 0
746 741 -306 0
-746 741 306 0
746 -741 306 0
-746 -741 -306 0
741 -747 0
746 -747 0
-741 -746 747 0
194 -748 0
82 -748 0
-194 -82 748 0
-747 745 0
-748 745 0
747 748 -745 0
83 195 -750 0
-83 195 750 0
83 -195 750 0
-83 -195 -750 0
750 745 -307 0
-750 745 307 0
750 -745 307 0
-750 -745 -307 0
745 -751 0
750 -751 0
-745 -750 751 0
195 -752 0
83 -752 0
-195 -83 752 0
-751 749 0
-752 749 0
751 752 -749 0
84 196 -753 0
-84 196 753 0
84 -196 753 0
-84 -196 -753 0
753 749 -308 0
-753 749 308 0
753 -749 308 0
-753 -749 -308 0
749 -754 0
753 -754 0
-749 -753 754 0
196 -755 0
84 -755 0
-196 -84 755 0
-754 740 0
-755 740 0
754 755 -740 0
742 -756 0
746 -756 0
750 -756 0
753 -756 0
-742 -746 -750 -753 756 0
755 -757 0
-755 757 0
739 -758 0
756 -758 0
-739 -756 758 0
-758 759 0
-740 759 0
758 740 -759 0
85 197 -762 0
-85 197 762 0
85 -197 762 0
-85 -197 -762 0
762 759 -309 0
-762 759 309 0
762 -759 309 0
-762 -759 -309 0
759 -763 0
762 -763 0
-759 -762 763 0
197 -764 0
85 -764 0
-197 -85 764 0
-763 761 0
-764 761 0
763 764 -761 0
86 198 -766 0
-86 198 766 0
86 -198 766 0
-86 -198 -766 0
766 761 -310 0
-766 761 310 0
766 -761 310 0
-766 -761 -310 0
761 -767 0
766 -767 0
-761 -766 767 0
198 -768 0
86 -768 0
-198 -86 768 0
-767 765 0
-768 765 0
767 768 -765 0
87 199 -770 0
-87 199 770 0
87 -199 770 0
-87 -199 -770 0
770 765 -311 0
-770 765 311 0
770 -765 311 0
-770 -765 -311 0
765 -771 0
770 -771 0
-765 -770 771 0
199 -772 0
87 -772 0
-199 -87 772 0
-771 769 0
-772 769 0
771 772 -769 0
88 200 -773 0
-88 200 773 0
88 -200 773 0
-88 -200 -773 0
773 769 -312 0
-773 769 312 0
773 -769 312 0
-773 -769 -312 0
769 -774 0
773 -774 0
-769 -773 774 0
200 -775 0
88 -775 0
-200 -88 775 0
-774 760 0
-775 760 0
774 775 -760 0
762 -776 0
766 -776 0
770 -776 0
773 -776 0
-762 -766 -770 -773 776 0
775 -777 0
-775 777 0
759 -778 0
776 -778 0
-759 -776 778 0
-778 779 0
-760 779 0
778 760 -779 0
89 201 -782 0
-89 201 782 0
89 -201 782 0
-89 -201 -782 0
782 779 -313 0
-782 779 313 0
782 -779 313 0
-782 -779 -313 0
779 -783 0
782 -783 0
-779 -782 783 0
201 -784 0
89 -784 0
-201 -89 784 0
-783 781 0
-784 781 0
783 784 -781 0
90 202 -786 0
-90 202 786 0
90 -202 786 0
-90 -202 -786 0
786 781 -314 0
-786 781 314 0
786 -781 314 0
-786 -781 -314 0
781 -787 0
786 -787 0
-781 -786 787 0
202 -788 0
90 -788 0
-202 -90 788 0
-787 785 0
-788 785 0
787 788 -785 0
91 203 -790 0
-91 203 790 0
91 -203 790 0
-91 -203 -790 0
790 785 -315 0
-790 785 315 0
790 -785 315 0
-790 -785 -315 0
785 -791 0
790 -791 0
-785 -790 791 0
203 -792 0
91 -792 0
-203 -91 792 0
-791 789 0
-792 789 0
791 792 -789 0
92 204 -793 0
-92 204 793 0
92 -204 793 0
-92 -204 -793 0
793 789 -316 0
-793 789 316 0
793 -789 316 0
-793 -789 -316 0
789 -794 0
793 -794 0
-789 -793 794 0
204 -795 0
92 -795 0
-204 -92 795 0
-794 780 0
-795 780 0
794 795 -780 0
782 -796 0
786 -796 0
790 -796 0
793 -796 0
-782 -786 -790 -793 796 0
795 -797 0
-795 797 0
779 -798 0
796 -798 0
-779 -796 798 0
-798 799 0
-780 799 0
798 780 -799 0
93 205 -802 0
-93 205 802 0
93 -205 802 0
-93 -205 -802 0
802 799 -317 0
-802 799 317 0
802 -799 317 0
-802 -799 -317 0
799 -803 0
802 -803 0
-799 -802 803 0
205 -804 0
93 -804 0
-205 -93 804 0
-803 801 0
-804 801 0
803 804 -801 0
94 206 -806 0
-94 206 806 0
94 -206 806 0
-94 -206 -806 0
806 801 -318 0
-806 801 318 0
806 -801 318 0
-806 -801 -318 0
801 -807 0
806 -807 0
-801 -806 807 0
206 -808 0
94 -808 0
-206 -94 808 0
-807 805 0
-808 805 0
807 808 -805 0
95 207 -810 0
-95 207 810 0
95 -207 810 0
-95 -207 -810 0
810 805 -319 0
-810 805 319 0
810 -805 319 0
-810 -805 -319 0
805 -811 0
810 -811 0
-805 -810 811 0
207 -812 0
95 -812 0
-207 -95 812 0
-811 809 0
-812 809 0
811 812 -809 0
96 208 -813 0
-96 208 813 0
96 -208 813 0
-96 -208 -813 0
813 809 -320 0
-813 809 320 0
813 -809 320 0
-813 -809 -320 0
809 -814 0
813 -814 0
-809 -813 814 0
208 -815 0
96 -815 0
-208 -96 815 0
-814 800 0
-815 800 0
814 815 -800 0
802 -816 0
806 -816 0
810 -816 0
813 -816 0
-802 -806 -810 -813 816 0
815 -817 0
-815 817 0
799 -818 0
816 -818 0
-799 -816 818 0
-818 819 0
-800 819 0
818 800 -819 0
97 209 -822 0
-97 209 822 0
97 -209 822 0
-97 -209 -822 0
822 819 -321 0
-822 819 321 0
822 -819 321 0
-822 -819 -321 0
819 -823 0
822 -823 0
-819 -822 823 0
209 -824 0
97 -824 0
-209 -97 824 0
-823 821 0
-824 821 0
823 824 -821 0
98 210 -826 0
-98 210 826 0
98 -210 826 0
-98 -210 -826 0
826 821 -322 0
-826 821 322 0
826 -821 322 0
-826 -821 -322 0
821 -827 0
826 -827 0
-821 -826 827 0
210 -828 0
98 -828 0
-210 -98 828 0
-827 825 0
-828 825 0
827 828 -825 0
99 211 -830 0
-99 211 830 0
99 -211 830 0
-99 -211 -830 0
830 825 -323 0
-830 825 323 0
830 -825 323 0
-830 -825 -323 0
825 -831 0
830 -831 0
-825 -830 831 0
211 -832 0
99 -832 0
-211 -99 832 0
-831 829 0
-832 829 0
831 832 -829 0
100 212 -833 0
-100 212 833 0
100 -212 833 0
-100 -212 -833 0
833 829 -324 0
-833 829 324 0
833 -829 324 0
-833 -829 -324 0
829 -834 0
833 -834 0
-829 -833 834 0
212 -835 0
100 -835 0
-212 -100 835 0
-834 820 0
-835 820 0
834 835 -820 0
822 -836 0
826 -836 0
830 -836 0
833 -836 0
-822 -826 -830 -833 836 0
835 -837 0
-835 837 0
819 -838 0
836 -838 0
-819 -836 838 0
-838 839 0
-820 839 0
838 820 -839 0
101 213 -842 0
-101 213 842 0
101 -213 842 0
-101 -213 -842 0
842 839 -325 0
-842 839 325 0
842 -839 325 0
-842 -839 -325 0
839 -843 0
842 -843 0
-839 -842 843 0
213 -844 0
101 -844 0
-213 -101 844 0
-843 841 0
-844 841 0
843 844 -841 0
102 214 -846 0
-102 214 846 0
102 -214 846 0
-102 -214 -846 0
846 841 -326 0
-846 841 326 0
846 -841 326 0
-846 -841 -326 0
841 -847 0
846 -847 0
-841 -846 847 0
214 -848 0
102 -848 0
-214 -102 848 0
-847 845 0
-848 845 0
847 848 -845 0
103 215 -850 0
-103 215 850 0
103 -215 850 0
-103 -215 -850 0
850 845 -327 0
-850 845 327 0
850 -845 327 0
-850 -845 -327 0
845 -851 0
850 -851 0
-845 -850 851 0
215 -852 0
103 -852 0
-215 -103 852 0
-851 849 0
-852 849 0
851 852 -849 0
104 216 -853 0
-104 216 853 0
104 -216 853 0
-104 -216 -853 0
853 849 -328 0
-853 849 328 0
853 -849 328 0
-853 -849 -328 0
849 -854 0
853 -854 0
-849 -853 854 0
216 -855 0
104 -855 0
-216 -104 855 0
-854 840 0
-855 840 0
854 855 -840 0
842 -856 0
846 -856 0
850 -856 0
853 -856 0
-842 -846 -850 -853 856 0
855 -857 0
-855 857 0
839 -858 0
856 -858 0
-839 -856 858 0
-858 859 0
-840 859 0
858 840 -859 0
105 217 -862 0
-105 217 862 0
105 -217 862 0
-105 -217 -862 0
862 859 -329 0
-862 859 329 0
862 -859 329 0
-862 -859 -329 0
859 -863 0
862 -863 0
-859 -862 863 0
217 -864 0
105 -864 0
-217 -105 864 0
-863 861 0
-864 861 0
863 864 -861 0
106 218 -866 0
-106 218 866 0
106 -218 866 0
-106 -218 -866 0
866 861 -330 0
-866 861 330 0
866 -861 330 0
-866 -861 -330 0
861 -867 0
866 -867 0
-861 -866 867 0
218 -868 0
106 -868 0
-218 -106 868 0
-867 865 0
-868 865 0
867 868 -865 0
107 219 -870 0
-107 219 870 0
107 -219 870 0
-107 -219 -870 0
870 865 -331 0
-870 865 331 0
870 -865 331 0
-870 -865 -331 0
865 -871 0
870 -871 0
-865 -870 871 0
219 -872 0
107 -872 0
-219 -107 872 0
-871 869 0
-872 869 0
871 872 -869 0
108 220 -873 0
-108 220 873 0
108 -220 873 0
-108 -220 -873 0
873 869 -332 0
-873 869 332 0
873 -869 332 0
-873 -869 -332 0
869 -874 0
873 -874 0
-869 -873 874 0
220 -875 0
108 -875 0
-220 -108 875 0
-874 860 0
-875 860 0
874 875 -860 0
862 -876 0
866 -876 0
870 -876 0
873 -876 0
-862 -866 -870 -873 876 0
875 -877 0
-875 877 0
859 -878 0
876 -878 0
-859 -876 878 0
-878 879 0
-860 879 0
878 860 -879 0
109 221 -882 0
-109 221 882 0
109 -221 882 0
-109 -221 -882 0
882 879 -333 0
-882 879 333 0
882 -879 333 0
-882 -879 -333 0
879 -883 0
882 -883 0
-879 -882 883 0
221 -884 0
109 -884 0
-221 -109 884 0
-883 881 0
-884 881 0
883 884 -881 0
110 222 -886 0
-110 222 886 0
110 -222 886 0
-110 -222 -886 0
886 881 -334 0
-886 881 334 0
886 -881 334 0
-886 -881 -334 0
881 -887 0
886 -887 0
-881 -886 887 0
222 -888 0
110 -888 0
-222 -110 888 0
-887 885 0
-888 885 0
887 888 -885 0
111 223 -890 0
-111 223 890 0
111 -223 890 0
-111 -223 -890 0
890 885 -335 0
-890 885 335 0
890 -885 335 0
-890 -885 -335 0
885 -891 0
890 -891 0
-885 -890 891 0
223 -892 0
111 -892 0
-223 -111 892 0
-891 889 0
-892 889 0
891 892 -889 0
112 224 -893 0
-112 224 893 0
112 -224 893 0
-112 -224 -893 0
893 889 -336 0
-893 889 336 0
893 -889 336 0
-893 -889 -336 0
889 -894 0
893 -894 0
-889 -893 894 0
224 -895 0
112 -895 0
-224 -112 895 0
-894 880 0
-895 880 0
894 895 -880 0
882 -896 0
886 -896 0
890 -896 0
893 -896 0
-882 -886 -890 -893 896 0
895 -897 0
-895 897 0
879 -898 0
896 -898 0
-879 -896 898 0
-898 899 0
-880 899 0
898 880 -899 0
899 -337 0
-899 337 0
